0 88 
1 93 
2 94 
3 96 
4 100 
5 100 
6 99 
7 96 
8 95 
9 94 
10 92 
11 92 
12 92 
13 93 
14 91 
15 89 
16 88 
17 87 
18 86 
19 83 
20 79 
21 78 
22 81 
23 81 
24 83 
25 82 
26 82 
27 81 
28 81 
29 78 
30 83 
31 80 
32 78 
33 76 
34 75 
35 75 
36 73 
37 69 
38 68 
39 66 
40 63 
41 59 
42 56 
43 54 
44 54 
45 52 
46 52 
47 51 
48 51 
49 51 
50 51 
51 51 
52 50 
53 49 
54 49 
55 47 
56 44 
57 45 
58 42 
59 40 
60 40 
61 39 
62 36 
63 36 
64 36 
65 35 
66 30 
67 30 
68 29 
69 26 
70 23 
71 23 
72 23 
73 25 
74 25 
75 23 
76 22 
77 21 
78 22 
79 22 
80 22 
81 21 
82 20 
83 19 
84 17 
85 17 
86 19 
87 18 
88 17 
89 16 
90 15 
91 16 
92 15 
93 13 
94 12 
95 11 
96 7 
97 7 
98 7 
99 6 
100 4 
101 5 
102 4 
103 3 
104 3 
105 4 
106 3 
107 2 
108 0 
109 0 

